# Hydrogels Equilibration Script

variable fname string configs/gel-N500-X100-b20.1.lammps
variable fout string lammps.data.conf
variable bond_length equal 1.12
variable bond_strength equal 2.5
variable lj_eps equal 1.0
variable lj_sig equal 1.0
variable lj_cut equal 1.12
variable T equal 0.05
variable steps equal 2000000
variable thermo equal 100000
variable dt equal 0.012

units		lj
atom_style	bond
special_bonds   lj 1.0 1.0 1.0
read_data	${fname}

neighbor	1.5 bin
neigh_modify one 10000

bond_style  harmonic
bond_coeff	* ${bond_strength} ${bond_length}

pair_style	lj/cut ${lj_cut}
pair_coeff	* * ${lj_eps} ${lj_sig} ${lj_cut}

fix		1 all nve
fix		2 all langevin ${T} ${T} 10.0 904297
fix		3 all recenter 0.0 0.0 0.0

minimize 0.0 1.0e-8 1000 100000
reset_timestep 0

thermo  ${thermo}
timestep	${dt}

run		${steps}

write_data ${fout} nocoeff nofix
