# Hydrogels Equilibration Script

variable fname string lammps.main.conf
variable output string lammps.out.conf
variable bond_length equal 1.12
variable bond_strength equal 5.0
variable lj_eps equal 1.0
variable lj_sig equal 1.0
variable lj_cut equal 1.12
variable T equal 1.0
variable steps equal 1000000
variable thermo equal 10000
variable dump equal 100000
variable dt equal 0.000012
variable seed equal 1

units		lj
atom_style	bond
bond_style  harmonic
pair_style	lj/cut ${lj_cut}
read_data	${fname}
special_bonds lj 1.0 1.0 1.0
neighbor 5.0 bin
neigh_modify one 10000

bond_coeff	* ${bond_strength} ${bond_length}
pair_coeff	* * ${lj_eps} ${lj_sig} ${lj_cut}

group gel type 1 2
group crosslinkers type 2
group enzymes type 3

fix		1 all nve
fix		2 all langevin ${T} ${T} 10.0 ${seed}
fix		3 gel recenter 0.0 0.0 0.0

#region bounding_sphere sphere 0.0 0.0 0.0 35.0 side in
#fix bounding_sphere enzymes wall/region bounding_sphere harmonic 5.0 0.0 5.0

fix damp all viscous 0.01
minimize 1.0e-25 1.0e-25 10000000000 1000000000000000
reset_timestep 0

timestep 0.0000000001
run 100000
unfix damp
timestep	${dt}

run 100000
reset_timestep 0

thermo  ${thermo}

dump 1 gel custom ${dump} dump/dump.gel.* x y z
dump 2 enzymes custom ${dump} dump/dump.enzyme.* x y z

run		${steps}

write_data ${output} nocoeff nofix
